30
1 0 15
2 0 52
2 1 28
3 0 5
3 1 25
3 2 52
4 0 40
4 1 50
4 2 88
4 3 39
5 0 17
5 1 68
5 2 60
5 3 66
5 4 49
6 0 81
6 1 59
6 2 85
6 3 55
6 4 77
6 5 96
7 0 83
7 1 20
7 2 71
7 3 23
7 4 42
7 5 1
7 6 57
8 0 45
8 1 90
8 2 69
8 3 76
8 4 41
8 5 25
8 6 33
8 7 53
9 0 9
9 1 39
9 2 74
9 3 96
9 4 7
9 5 85
9 6 86
9 7 44
9 8 70
10 0 46
10 1 100
10 2 7
10 3 17
10 4 7
10 5 38
10 6 50
10 7 91
10 8 45
10 9 17
11 0 1
11 1 77
11 2 82
11 3 13
11 4 80
11 5 1
11 6 52
11 7 43
11 8 98
11 9 11
11 10 12
12 0 34
12 1 61
12 2 84
12 3 66
12 4 76
12 5 69
12 6 12
12 7 87
12 8 91
12 9 18
12 10 58
12 11 82
13 0 56
13 1 25
13 2 93
13 3 93
13 4 64
13 5 38
13 6 54
13 7 60
13 8 13
13 9 16
13 10 76
13 11 88
13 12 55
14 0 69
14 1 86
14 2 79
14 3 45
14 4 3
14 5 85
14 6 22
14 7 76
14 8 16
14 9 26
14 10 65
14 11 81
14 12 33
14 13 81
15 0 12
15 1 49
15 2 74
15 3 57
15 4 100
15 5 77
15 6 93
15 7 90
15 8 65
15 9 61
15 10 47
15 11 46
15 12 1
15 13 96
15 14 62
16 0 84
16 1 64
16 2 32
16 3 13
16 4 87
16 5 86
16 6 19
16 7 41
16 8 47
16 9 85
16 10 31
16 11 69
16 12 65
16 13 2
16 14 42
16 15 88
17 0 100
17 1 93
17 2 12
17 3 27
17 4 89
17 5 52
17 6 2
17 7 29
17 8 9
17 9 62
17 10 4
17 11 92
17 12 51
17 13 72
17 14 93
17 15 65
17 16 47
18 0 74
18 1 4
18 2 78
18 3 47
18 4 11
18 5 7
18 6 66
18 7 49
18 8 44
18 9 35
18 10 20
18 11 26
18 12 66
18 13 68
18 14 59
18 15 10
18 16 24
18 17 9
19 0 19
19 1 9
19 2 12
19 3 85
19 4 95
19 5 87
19 6 26
19 7 52
19 8 84
19 9 24
19 10 95
19 11 6
19 12 21
19 13 34
19 14 37
19 15 27
19 16 2
19 17 15
19 18 12
20 0 89
20 1 25
20 2 47
20 3 44
20 4 31
20 5 12
20 6 75
20 7 58
20 8 68
20 9 86
20 10 41
20 11 49
20 12 84
20 13 5
20 14 42
20 15 66
20 16 42
20 17 95
20 18 35
20 19 2
21 0 90
21 1 20
21 2 22
21 3 99
21 4 60
21 5 89
21 6 72
21 7 20
21 8 94
21 9 83
21 10 79
21 11 50
21 12 25
21 13 51
21 14 45
21 15 22
21 16 8
21 17 23
21 18 50
21 19 86
21 20 89
22 0 17
22 1 56
22 2 52
22 3 38
22 4 46
22 5 25
22 6 100
22 7 87
22 8 61
22 9 85
22 10 19
22 11 71
22 12 79
22 13 52
22 14 15
22 15 37
22 16 79
22 17 95
22 18 23
22 19 73
22 20 67
22 21 11
23 0 85
23 1 91
23 2 48
23 3 35
23 4 99
23 5 42
23 6 52
23 7 10
23 8 49
23 9 60
23 10 98
23 11 90
23 12 49
23 13 67
23 14 100
23 15 50
23 16 94
23 17 72
23 18 46
23 19 25
23 20 86
23 21 55
23 22 5
24 0 9
24 1 63
24 2 19
24 3 42
24 4 76
24 5 73
24 6 52
24 7 44
24 8 6
24 9 63
24 10 28
24 11 88
24 12 38
24 13 71
24 14 36
24 15 13
24 16 72
24 17 34
24 18 27
24 19 62
24 20 93
24 21 76
24 22 9
24 23 11
25 0 100
25 1 11
25 2 33
25 3 13
25 4 42
25 5 83
25 6 49
25 7 5
25 8 17
25 9 43
25 10 29
25 11 67
25 12 75
25 13 16
25 14 75
25 15 37
25 16 23
25 17 12
25 18 75
25 19 100
25 20 43
25 21 96
25 22 63
25 23 26
25 24 50
26 0 5
26 1 99
26 2 21
26 3 69
26 4 85
26 5 77
26 6 2
26 7 94
26 8 88
26 9 23
26 10 26
26 11 63
26 12 48
26 13 51
26 14 32
26 15 68
26 16 28
26 17 71
26 18 63
26 19 75
26 20 3
26 21 87
26 22 89
26 23 26
26 24 26
26 25 13
27 0 56
27 1 48
27 2 91
27 3 5
27 4 4
27 5 1
27 6 91
27 7 87
27 8 55
27 9 15
27 10 26
27 11 6
27 12 61
27 13 26
27 14 24
27 15 61
27 16 42
27 17 94
27 18 70
27 19 86
27 20 84
27 21 66
27 22 52
27 23 73
27 24 54
27 25 24
27 26 85
28 0 70
28 1 59
28 2 22
28 3 59
28 4 5
28 5 68
28 6 3
28 7 17
28 8 92
28 9 48
28 10 59
28 11 78
28 12 43
28 13 6
28 14 66
28 15 47
28 16 88
28 17 37
28 18 4
28 19 77
28 20 65
28 21 100
28 22 62
28 23 80
28 24 51
28 25 88
28 26 63
28 27 1
29 0 22
29 1 71
29 2 77
29 3 2
29 4 89
29 5 9
29 6 6
29 7 16
29 8 37
29 9 76
29 10 48
29 11 71
29 12 45
29 13 35
29 14 81
29 15 1
29 16 1
29 17 66
29 18 30
29 19 78
29 20 17
29 21 30
29 22 94
29 23 47
29 24 99
29 25 11
29 26 55
29 27 41
29 28 51
